************************************************************************
file with basedata            : md352_.bas
initial value random generator: 1308242140
************************************************************************
projects                      :  1
jobs (incl. supersource/sink ):  22
horizon                       :  160
RESOURCES
  - renewable                 :  2   R
  - nonrenewable              :  2   N
  - doubly constrained        :  0   D
************************************************************************
PROJECT INFORMATION:
pronr.  #jobs rel.date duedate tardcost  MPM-Time
    1     20      0       28       14       28
************************************************************************
PRECEDENCE RELATIONS:
jobnr.    #modes  #successors   successors
   1        1          3           2   3   4
   2        3          3          15  18  20
   3        3          3           5   6   9
   4        3          2          11  13
   5        3          2           7  11
   6        3          1           7
   7        3          2           8  10
   8        3          2          12  13
   9        3          1          15
  10        3          2          14  18
  11        3          2          14  19
  12        3          3          15  16  17
  13        3          2          16  17
  14        3          2          17  20
  15        3          2          19  21
  16        3          2          18  20
  17        3          1          21
  18        3          2          19  21
  19        3          1          22
  20        3          1          22
  21        3          1          22
  22        1          0        
************************************************************************
REQUESTS/DURATIONS:
jobnr. mode duration  R 1  R 2  N 1  N 2
------------------------------------------------------------------------
  1      1     0       0    0    0    0
  2      1     5       4    3    9    0
         2     7       4    2    6    0
         3    10       4    2    0    6
  3      1     2       6    8    0    7
         2     7       5    7    0    6
         3     9       1    1    0    2
  4      1     5       9    9    1    0
         2     5       7    8    3    0
         3     7       6    2    0    5
  5      1     7       7    3    3    0
         2     9       6    3    0    5
         3    10       4    2    3    0
  6      1     7       6    4   10    0
         2     7       6    4    0   10
         3    10       6    3    0    7
  7      1     7       2    4    7    0
         2     9       1    3    0    7
         3     9       2    3    0    3
  8      1     1      10    4    4    0
         2     6       6    3    4    0
         3    10       4    1    4    0
  9      1     5       5    2    8    0
         2     9       3    2    0    4
         3     9       5    1    7    0
 10      1     1       5    3    0    1
         2     4       4    2    9    0
         3     5       3    2    2    0
 11      1     1       7    7    7    0
         2     5       7    6    0    5
         3     8       6    2    0    2
 12      1     2       6    8    0    6
         2     3       4    5    6    0
         3     6       3    5    6    0
 13      1     1       8    9    6    0
         2     6       7    7    6    0
         3    10       7    6    0    6
 14      1     2       7    4    0    1
         2     3       5    3   10    0
         3     4       4    3    9    0
 15      1     5       4    7    6    0
         2     5       3    7    8    0
         3     5       3    8    6    0
 16      1     1       8    8    0    8
         2     5       7    7    0    6
         3     7       7    6    7    0
 17      1     6       8    8    0    6
         2     6       8    6    6    0
         3    10       7    4    5    0
 18      1     4       9    8    0    5
         2     8       8    5    8    0
         3     9       5    3    8    0
 19      1     1       8   10    0    9
         2     5       7    9    2    0
         3    10       7    8    0    8
 20      1     3       3    6    6    0
         2     5       2    6    0   10
         3     5       2    6    2    0
 21      1     3       2    4    0    3
         2     6       2    4    5    0
         3     7       2    4    3    0
 22      1     0       0    0    0    0
************************************************************************
RESOURCEAVAILABILITIES:
  R 1  R 2  N 1  N 2
   31   30  124  104
************************************************************************
MAXIMAL LAGS:
from  to  type  delay
    1   12   ES      0
    1    2   ES      0
    2   12   ES      0
    1    3   ES      0
    3   12   ES      0
    1    4   ES      0
    4   12   ES      0
    1    5   ES      0
    5   12   ES      0
    1    6   ES      0
    6   12   ES      0
    1    7   ES      0
    7   12   ES      0
    1    8   ES      0
    8   12   ES      0
    1    9   ES      0
    9   12   ES      0
    1   10   ES      0
   10   12   ES      0
    1   11   ES      0
   11   12   ES      0
    1   12   ES      0
    2   15   SS      4
    2   15   SE     -1
    2   15   ES      3
    2   15   EE      1
    2   18   SS     12
    2   18   SE    -11
    2   18   ES      1
    2   18   EE     10
    2   20   SS     -6
    2   20   SE     -4
    2   20   ES      7
    2   20   EE     -3
    3    5   SS     -7
    3    5   SE      7
    3    5   ES    -11
    3    5   EE     -4
    3    6   SS      1
    3    6   SE    -10
    3    6   ES      3
    3    6   EE     -2
    3    9   SS     -2
    3    9   SE     -9
    3    9   ES      4
    3    9   EE      5
    4   11   SS      2
    4   11   SE    -12
    4   11   ES    -10
    4   11   EE      3
    4   13   SS      7
    4   13   SE      7
    4   13   ES      6
    4   13   EE     -6
    5    7   SS     -7
    5    7   SE     -3
    5    7   ES     10
    5    7   EE     -7
    5   11   SS    -11
    5   11   SE     -7
    5   11   ES     -3
    5   11   EE      5
    6    7   SS     -5
    6    7   SE      2
    6    7   ES     -3
    6    7   EE     -4
    7    8   SS     12
    7    8   SE     -4
    7    8   ES    -10
    7    8   EE     12
    7   10   SS      3
    7   10   SE     -7
    7   10   ES     -5
    7   10   EE     -4
    8   13   SS     -1
    8   13   SE      1
    8   13   ES     12
    8   13   EE     -2
    9   15   SS     -6
    9   15   SE      4
   15    9   SE      0
    9   15   ES      0
    9   15   EE      6
   10   14   SS     -4
   10   14   SE      2
   10   14   ES      6
   10   14   EE     12
   10   18   SS    -12
   10   18   SE     -7
   10   18   ES     -1
   10   18   EE     -3
   11   14   SS     12
   11   14   SE      5
   11   14   ES     -1
   11   14   EE     11
   11   19   SS     -5
   11   19   SE      0
   11   19   ES     12
   11   19   EE     -8
   12   15   SS      1
   12   15   SE      5
   12   15   ES      6
   12   15   EE    -11
   12   16   SS     -4
   12   16   SE     10
   12   16   ES      2
   12   16   EE     -7
   12   17   SS     -6
   12   17   SE      4
   12   17   ES      1
   12   17   EE     11
   13   16   SS     10
   13   16   SE     -4
   13   16   ES    -10
   13   16   EE      8
   13   17   SS    -12
   13   17   SE    -12
   13   17   ES      7
   13   17   EE     -2
   14   17   SS     -5
   14   17   SE      4
   14   17   ES     -2
   14   17   EE      8
   14   20   SS     -2
   14   20   SE      3
   14   20   ES     11
   14   20   EE     -4
   15   19   SS     -7
   15   19   SE    -10
   15   19   ES      0
   15   19   EE     11
   15   21   SS     -4
   15   21   SE     -5
   15   21   ES     -2
   15   21   EE     12
   16   18   SS      6
   16   18   SE      7
   16   18   ES    -12
   16   18   EE    -11
   16   20   SS      6
   16   20   SE     12
   16   20   ES     -5
   16   20   EE      3
   17   21   SS      5
   17   21   SE    -10
   17   21   ES     -4
   17   21   EE      9
   18   19   SS      1
   18   19   SE    -11
   18   19   ES     -3
   18   19   EE      3
   18   21   SS      8
   18   21   SE      8
   18   21   ES      1
   18   21   EE     11
   19   22   SS     -9
   19   22   SE     -3
   19   22   ES     -5
   19   22   EE      2
   20   22   SS      4
   20   22   SE      4
   20   22   ES     -4
   20   22   EE     -4
   21   22   SS     -6
   21   22   SE      2
   21   22   ES    -11
   21   22   EE      0
************************************************************************
